NAME : berlin52_solution.tour
TYPE : TOUR
DIMENSION : 53
COMMENT : Tour length: 8584.6327
COMMENT : Time elapsed: 100.43 [s]
TOUR_SECTION
0
21
30
20
22
19
49
28
29
41
1
6
16
2
17
31
48
43
15
45
33
34
35
38
39
36
37
47
23
4
5
14
42
3
24
25
46
12
13
51
10
26
27
11
50
32
9
8
7
40
18
44
0
-1
EOF
